c   #vars: 78   #clauses: 355   #literals: 986
c 
p cnf 78 355
-1 -2 0
8 40 41 -73 0
-4 -5 0
-6 -7 0
23 -46 77 78 0
-9 -10 0
-11 -12 0
-13 -14 0
-15 -16 0
-17 -18 0
-19 -20 0
-21 -22 0
-7 8 -40 53 0
15 16 36 -72 0
-24 -25 0
-26 -27 0
-28 -29 0
-30 -31 0
-32 -33 0
21 22 64 65 0
-34 -35 0
48 64 65 -68 0
-37 -38 0
-40 -41 0
-42 -43 0
34 35 69 70 0
32 33 69 70 0
-44 -45 0
-46 -47 0
21 22 49 -71 0
-8 51 52 53 0
11 12 39 -64 0
-51 -52 0
42 43 -48 68 0
51 52 75 76 0
-54 -55 0
-56 -57 0
-58 -59 0
-60 -61 0
-62 -63 0
-64 -65 0
17 18 28 29 0
26 27 28 29 0
30 31 54 55 0
-43 48 -64 68 0
-66 -67 0
-69 -70 0
-71 -72 0
13 14 77 78 0
-73 -74 0
-75 -76 0
11 12 77 78 0
-77 -78 0
6 7 51 52 0
-2 -39 0
49 -66 71 72 0
-1 -60 0
-2 -61 0
-1 -68 0
17 18 54 55 0
-1 -75 0
-2 -76 0
13 14 37 38 0
8 40 41 -53 0
-3 -31 0
-1 39 64 65 0
-2 -24 48 68 0
-3 -76 0
21 22 56 57 0
-24 -43 48 68 0
-3 -78 0
44 45 75 76 0
-4 -42 0
-5 -43 0
13 14 44 45 0
-4 -51 0
-5 -52 0
46 47 71 72 0
-4 -58 0
-5 -59 0
51 52 69 70 0
-4 -69 0
-5 -70 0
9 10 66 67 0
-6 -40 0
-7 -41 0
3 -75 77 78 0
-6 -42 0
-7 -43 0
23 -36 46 47 0
-6 -46 0
-7 -47 0
26 27 46 47 0
-6 -51 0
-7 -52 0
8 -52 53 -73 0
-6 -53 0
-2 42 43 68 0
44 45 69 70 0
23 -36 77 78 0
-8 -41 0
51 52 73 74 0
24 25 48 -64 0
1 2 -48 68 0
11 12 28 29 0
24 25 48 -68 0
-8 -74 0
8 -40 -52 53 0
-9 -32 0
-10 -33 0
-9 -44 0
-10 -45 0
40 41 54 55 0
-9 -66 0
-10 -67 0
19 20 54 55 0
-9 -71 0
-10 -72 0
46 47 77 78 0
-9 -73 0
-10 -74 0
17 18 58 59 0
-11 -28 0
-12 -29 0
15 16 50 -73 0
-11 -30 0
-12 -31 0
-12 -39 0
17 18 66 67 0
-11 -51 0
-12 -52 0
15 16 -19 50 0
-11 -73 0
-12 -74 0
-11 -77 0
-12 -78 0
6 7 40 41 0
-13 -37 0
-14 -38 0
37 38 56 57 0
-13 -40 0
-14 -41 0
-13 -44 0
-14 -45 0
15 16 71 72 0
-13 -46 0
-14 -47 0
3 30 31 -77 0
11 12 51 52 0
-13 -66 0
-14 -67 0
11 12 30 31 0
-13 -77 0
-14 -78 0
-15 -28 0
-16 -29 0
3 -30 77 78 0
-15 -36 0
-24 48 64 65 0
24 25 30 31 0
1 2 60 61 0
-1 11 12 39 0
-16 -50 0
-15 -62 0
-16 -63 0
26 27 73 74 0
-15 -71 0
-16 -72 0
24 25 62 63 0
-15 -75 0
-16 -76 0
26 27 64 65 0
-17 -28 0
-18 -29 0
26 27 32 33 0
-17 -42 0
-18 -43 0
6 7 46 47 0
-17 -54 0
-18 -55 0
-17 -58 0
-18 -59 0
8 -40 73 74 0
-17 -66 0
-18 -67 0
-16 23 36 -46 0
-17 -75 0
-18 -76 0
-19 -40 0
-20 -41 0
15 16 75 76 0
-19 -44 0
-20 -45 0
28 29 56 57 0
-20 -50 0
34 35 75 76 0
-19 -54 0
-20 -55 0
23 36 -72 -77 0
-7 51 53 0
-22 -49 0
-21 -56 0
-22 -57 0
9 10 32 33 0
-21 -64 0
-22 -65 0
9 10 44 45 0
-21 -71 0
-22 -72 0
13 14 66 67 0
1 2 39 -64 0
1 2 -11 39 0
-16 23 36 -77 0
15 16 -23 36 0
9 10 73 74 0
-23 36 71 72 0
-23 -47 0
-21 49 71 72 0
-16 36 71 72 0
-23 -78 0
19 20 50 -73 0
-24 -30 0
-25 -31 0
19 20 40 41 0
-24 -37 0
-25 -38 0
-24 -44 0
-25 -45 0
21 22 49 -66 0
-25 -48 0
15 16 28 29 0
-24 -54 0
-25 -55 0
21 22 71 72 0
-24 -62 0
-25 -63 0
15 16 62 63 0
42 43 75 76 0
3 30 31 -75 0
17 18 42 43 0
-26 -28 0
-27 -29 0
37 38 60 61 0
-26 -32 0
-27 -33 0
6 7 42 43 0
-26 -46 0
-27 -47 0
42 43 60 61 0
-26 -62 0
-27 -63 0
-26 -64 0
-27 -65 0
4 5 42 43 0
-26 -73 0
-27 -74 0
24 25 44 45 0
-28 -54 0
-29 -55 0
32 33 58 59 0
-28 -56 0
-29 -57 0
-7 8 53 -73 0
-28 -60 0
-29 -61 0
3 75 76 -77 0
-30 -54 0
-31 -55 0
-2 48 -64 68 0
-32 -56 0
-33 -57 0
19 20 44 45 0
-32 -58 0
-33 -59 0
28 29 60 61 0
-32 -69 0
-33 -70 0
-19 50 73 74 0
-34 -54 0
-35 -55 0
-11 39 64 65 0
-34 -58 0
-35 -59 0
34 35 54 55 0
-34 -69 0
-35 -70 0
1 2 75 76 0
-34 -75 0
-35 -76 0
4 5 69 70 0
-36 -71 0
23 46 47 -77 0
-37 -56 0
-38 -57 0
4 5 51 52 0
-37 -60 0
-38 -61 0
17 18 75 76 0
-37 -62 0
-38 -63 0
-39 -65 0
32 33 56 57 0
-40 -54 0
-41 -55 0
-42 -60 0
-43 -61 0
4 5 58 59 0
-42 -68 0
26 27 62 63 0
-42 -75 0
-43 -76 0
24 25 37 38 0
9 10 71 72 0
-44 -62 0
-45 -63 0
23 36 -46 -72 0
-44 -69 0
-45 -70 0
13 14 46 47 0
-44 -75 0
-45 -76 0
34 35 58 59 0
-46 -56 0
-47 -57 0
11 12 73 74 0
-46 -71 0
-47 -72 0
-15 19 20 50 0
-46 -77 0
-47 -78 0
44 45 62 63 0
49 66 67 -71 0
-48 -65 0
-21 49 66 67 0
24 25 54 55 0
6 -52 53 0
-49 -67 0
3 -30 75 76 0
6 7 -8 53 0
-49 -72 0
-15 50 73 74 0
46 47 56 57 0
-50 -74 0
37 38 62 63 0
-51 -53 0
1 2 -43 68 0
8 -53 73 74 0
-51 -69 0
-52 -70 0
13 14 40 41 0
-51 -73 0
-52 -74 0
28 29 54 55 0
-51 -75 0
-52 -76 0
